c musae-wiki:crocodile: The data was collected from the English Wikipedia (December 2018). https://snap.stanford.edu/data/wikipedia-article-networks.html
p edge 35 34
e 1 26
e 2 20
e 3 26
e 4 21
e 4 9
e 4 30
e 4 27
e 4 12
e 4 7
e 4 23
e 4 31
e 4 18
e 4 11
e 5 14
e 5 34
e 5 28
e 5 29
e 5 33
e 5 19
e 6 20
e 8 26
e 10 32
e 11 32
e 13 20
e 15 26
e 16 32
e 17 20
e 20 28
e 20 25
e 22 26
e 24 26
e 25 26
e 26 31
e 26 35
l 19
t 10 14
